100 100
76 88 1
23 22 1
9 91 1
57 82 1
23 19 1
94 56 1
94 83 1
78 21 1
35 27 1
87 89 1
90 29 1
32 4 1
36 1 1
57 43 1
84 86 1
40 19 1
80 63 1
93 75 1
1 43 1
59 89 1
57 69 1
17 72 1
94 21 1
77 70 1
89 8 1
84 58 1
53 76 1
17 49 1
31 1 1
85 87 1
100 96 1
33 50 1
72 5 1
40 49 1
91 5 1
16 29 1
35 8 1
5 66 1
15 58 1
86 73 1
75 33 1
70 93 1
93 43 1
100 5 1
81 34 1
56 20 1
82 83 1
47 81 1
75 2 1
19 67 1
70 34 1
49 90 1
12 57 1
48 92 1
79 83 1
61 53 1
83 57 1
66 83 1
66 55 1
73 27 1
8 89 1
27 62 1
19 3 1
5 100 1
43 75 1
20 85 1
59 17 1
15 94 1
78 72 1
69 40 1
43 19 1
91 66 1
34 69 1
27 50 1
60 65 1
55 3 1
67 87 1
85 71 1
32 44 1
63 29 1
66 82 1
65 90 1
14 77 1
3 98 1
54 42 1
22 31 1
96 21 1
98 100 1
85 91 1
44 50 1
98 64 1
4 57 1
48 84 1
55 34 1
78 29 1
8 24 1
67 9 1
9 6 1
24 70 1
34 91 1
100 100 
100 100 
100 100 
100 100 
100 100 
100 100 
100 100 
100 100 
100 100 
100 100 
100 100 
100 100 
100 100 
100 100 
100 100 
100 100 
100 100 
100 100 
100 100 
100 100 
100 100 
100 100 
100 100 
100 100 
100 100 
100 100 
100 100 
100 100 
100 100 
100 100 
100 100 
100 100 
100 100 
100 100 
100 100 
100 100 
100 100 
100 100 
100 100 
100 100 
100 100 
100 100 
100 100 
100 100 
100 100 
100 100 
100 100 
100 100 
100 100 
100 100 
100 100 
100 100 
100 100 
100 100 
100 100 
100 100 
100 100 
100 100 
100 100 
100 100 
100 100 
100 100 
100 100 
100 100 
100 100 
100 100 
100 100 
100 100 
100 100 
100 100 
100 100 
100 100 
100 100 
100 100 
100 100 
100 100 
100 100 
100 100 
100 100 
100 100 
100 100 
100 100 
100 100 
100 100 
100 100 
100 100 
100 100 
100 100 
100 100 
100 100 
100 100 
100 100 
100 100 
100 100 
100 100 
100 100 
100 100 
100 100 
100 100 
100 100 
